# 53503
param k := 6;
param n := 60;
param s := 1;
set E :=  (0,26) (0,40) (1,16) (1,36) (2,32) (2,54) (3,10) (3,12) (3,14) (4,18) (4,27) (4,47) (4,53) (5,30) (6,14) (7,13) (7,25) (8,20) (8,56) (9,26) (10,39) (10,50) (11,19) (11,36) (11,52) (11,54) (12,13) (13,22) (13,27) (15,35) (15,40) (16,51) (17,23) (18,21) (20,48) (21,33) (23,28) (23,30) (23,33) (23,42) (23,52) (24,49) (25,31) (25,43) (27,56) (27,57) (29,44) (29,53) (30,37) (30,46) (31,51) (32,38) (34,39) (34,53) (35,43) (41,58) (42,55) (45,52) (49,58) (50,56) (54,56) (55,58) (55,59);